Route #1: 1 42 62 61 21 69 71 57 72 1 
Route #2: 1 33 51 50 24 49 23 1 
Route #3: 1 74 5 20 13 29 45 1 
Route #4: 1 73 2 48 27 34 68 1 
Route #5: 1 1 64 41 18 3 63 1 
Route #6: 1 16 6 75 4 15 1 
Route #7: 1 43 22 28 47 30 1 
Route #8: 1 12 40 32 25 55 1 
Route #9: 1 44 39 10 58 17 1 
Route #10: 1 26 7 35 46 67 1 
Route #11: 1 56 9 11 1 
Route #12: 1 37 52 8 19 59 65 1 
Route #13: 1 36 60 70 54 53 38 1 
Route #14: 1 31 66 14 1 

Cost 1684.1
Time 1.1298


 * Another infos *

 Iterations: 76 Time: 1.1298 sec - 0.0188 min - 0.0003 horas
0.0000 h 0.0188 min
Problem dimension: 76
